unknown
(model
(declare-sort BoundSet 0)
(declare-sort UnboundSet 0)
(define-fun IsTeacher ((BOUND_VARIABLE_321 BoundSet)) Bool false)
(define-fun IsBestClass ((BOUND_VARIABLE_321 BoundSet)) Bool false)
(define-fun IsBest ((BOUND_VARIABLE_321 BoundSet)) Bool false)
(define-fun IsClass ((BOUND_VARIABLE_321 BoundSet)) Bool false)
)
